webassembly/ejemplos_dzn/folder9_json_72.dzn
TERM = { '.', 'in_1', 'local_0', 'local_1', 'in_2', 'in_3', 's(1)', 's(0)', 'in_0'};
null = '.';
s = 9;
n = 9;
ndeps = 0;
max_registers_sz = 5;
NR = 2;
registers = [|'local_0', 's(1)', |'local_1', 'in_3'|];
dependencies = [| |];
GET_ENUM = { GET1, GET2, GET3, GET4, GET5, GET6, GET7};
SET_ENUM = { SET1, SET2, SET3, SET4, SET5, SET6, SET7};
TEE_ENUM = { TEE1, TEE2, TEE3, TEE4, TEE5, TEE6, TEE7};
N = 2;
OP = { 'i32.load16_s_0', 'i32.load16_s_5' };
in_ops = [1, 1 ];
out_ops = [1, 1 ];
in1 = ['in_0', 'in_2' ];
in2 = ['.', '.' ];
in3 = ['.', '.' ];
out1 = ['s(0)', 's(1)' ];
out2 = ['.', '.' ];
out3 = ['.', '.' ];
comm = [false, false ];
gas = [1, 1 ];
sz = [1, 1 ];
stor = [false, false ];
lb = [ 1, 1 ];
ub = [ 9, 9 ];
startstack = [ 'in_0', 'in_1', 'in_2', 'in_3', null, null, null, null, null ];
endstack = [ 'in_3', null, null, null, null, null, null, null, null ];
